certificates/rado_a13_c5_N134.cnf
c Rad2 upper bound instance: x1 + 13*x2 - x3 = 5, interval [1,134]
p cnf 134 1350
1 9 0
-1 -9 0
1 2 22 0
-1 -2 -22 0
1 3 35 0
-1 -3 -35 0
1 4 48 0
-1 -4 -48 0
1 5 61 0
-1 -5 -61 0
1 6 74 0
-1 -6 -74 0
1 7 87 0
-1 -7 -87 0
1 8 100 0
-1 -8 -100 0
1 9 113 0
-1 -9 -113 0
1 10 126 0
-1 -10 -126 0
1 2 10 0
-1 -2 -10 0
2 23 0
-2 -23 0
2 3 36 0
-2 -3 -36 0
2 4 49 0
-2 -4 -49 0
2 5 62 0
-2 -5 -62 0
2 6 75 0
-2 -6 -75 0
2 7 88 0
-2 -7 -88 0
2 8 101 0
-2 -8 -101 0
2 9 114 0
-2 -9 -114 0
2 10 127 0
-2 -10 -127 0
1 3 11 0
-1 -3 -11 0
2 3 24 0
-2 -3 -24 0
3 37 0
-3 -37 0
3 4 50 0
-3 -4 -50 0
3 5 63 0
-3 -5 -63 0
3 6 76 0
-3 -6 -76 0
3 7 89 0
-3 -7 -89 0
3 8 102 0
-3 -8 -102 0
3 9 115 0
-3 -9 -115 0
3 10 128 0
-3 -10 -128 0
1 4 12 0
-1 -4 -12 0
2 4 25 0
-2 -4 -25 0
3 4 38 0
-3 -4 -38 0
4 51 0
-4 -51 0
4 5 64 0
-4 -5 -64 0
4 6 77 0
-4 -6 -77 0
4 7 90 0
-4 -7 -90 0
4 8 103 0
-4 -8 -103 0
4 9 116 0
-4 -9 -116 0
4 10 129 0
-4 -10 -129 0
1 5 13 0
-1 -5 -13 0
2 5 26 0
-2 -5 -26 0
3 5 39 0
-3 -5 -39 0
4 5 52 0
-4 -5 -52 0
5 65 0
-5 -65 0
5 6 78 0
-5 -6 -78 0
5 7 91 0
-5 -7 -91 0
5 8 104 0
-5 -8 -104 0
5 9 117 0
-5 -9 -117 0
5 10 130 0
-5 -10 -130 0
1 6 14 0
-1 -6 -14 0
2 6 27 0
-2 -6 -27 0
3 6 40 0
-3 -6 -40 0
4 6 53 0
-4 -6 -53 0
5 6 66 0
-5 -6 -66 0
6 79 0
-6 -79 0
6 7 92 0
-6 -7 -92 0
6 8 105 0
-6 -8 -105 0
6 9 118 0
-6 -9 -118 0
6 10 131 0
-6 -10 -131 0
1 7 15 0
-1 -7 -15 0
2 7 28 0
-2 -7 -28 0
3 7 41 0
-3 -7 -41 0
4 7 54 0
-4 -7 -54 0
5 7 67 0
-5 -7 -67 0
6 7 80 0
-6 -7 -80 0
7 93 0
-7 -93 0
7 8 106 0
-7 -8 -106 0
7 9 119 0
-7 -9 -119 0
7 10 132 0
-7 -10 -132 0
1 8 16 0
-1 -8 -16 0
2 8 29 0
-2 -8 -29 0
3 8 42 0
-3 -8 -42 0
4 8 55 0
-4 -8 -55 0
5 8 68 0
-5 -8 -68 0
6 8 81 0
-6 -8 -81 0
7 8 94 0
-7 -8 -94 0
8 107 0
-8 -107 0
8 9 120 0
-8 -9 -120 0
8 10 133 0
-8 -10 -133 0
1 9 17 0
-1 -9 -17 0
2 9 30 0
-2 -9 -30 0
3 9 43 0
-3 -9 -43 0
4 9 56 0
-4 -9 -56 0
5 9 69 0
-5 -9 -69 0
6 9 82 0
-6 -9 -82 0
7 9 95 0
-7 -9 -95 0
8 9 108 0
-8 -9 -108 0
9 121 0
-9 -121 0
9 10 134 0
-9 -10 -134 0
1 10 18 0
-1 -10 -18 0
2 10 31 0
-2 -10 -31 0
3 10 44 0
-3 -10 -44 0
4 10 57 0
-4 -10 -57 0
5 10 70 0
-5 -10 -70 0
6 10 83 0
-6 -10 -83 0
7 10 96 0
-7 -10 -96 0
8 10 109 0
-8 -10 -109 0
9 10 122 0
-9 -10 -122 0
1 11 19 0
-1 -11 -19 0
2 11 32 0
-2 -11 -32 0
3 11 45 0
-3 -11 -45 0
4 11 58 0
-4 -11 -58 0
5 11 71 0
-5 -11 -71 0
6 11 84 0
-6 -11 -84 0
7 11 97 0
-7 -11 -97 0
8 11 110 0
-8 -11 -110 0
9 11 123 0
-9 -11 -123 0
1 12 20 0
-1 -12 -20 0
2 12 33 0
-2 -12 -33 0
3 12 46 0
-3 -12 -46 0
4 12 59 0
-4 -12 -59 0
5 12 72 0
-5 -12 -72 0
6 12 85 0
-6 -12 -85 0
7 12 98 0
-7 -12 -98 0
8 12 111 0
-8 -12 -111 0
9 12 124 0
-9 -12 -124 0
1 13 21 0
-1 -13 -21 0
2 13 34 0
-2 -13 -34 0
3 13 47 0
-3 -13 -47 0
4 13 60 0
-4 -13 -60 0
5 13 73 0
-5 -13 -73 0
6 13 86 0
-6 -13 -86 0
7 13 99 0
-7 -13 -99 0
8 13 112 0
-8 -13 -112 0
9 13 125 0
-9 -13 -125 0
1 14 22 0
-1 -14 -22 0
2 14 35 0
-2 -14 -35 0
3 14 48 0
-3 -14 -48 0
4 14 61 0
-4 -14 -61 0
5 14 74 0
-5 -14 -74 0
6 14 87 0
-6 -14 -87 0
7 14 100 0
-7 -14 -100 0
8 14 113 0
-8 -14 -113 0
9 14 126 0
-9 -14 -126 0
1 15 23 0
-1 -15 -23 0
2 15 36 0
-2 -15 -36 0
3 15 49 0
-3 -15 -49 0
4 15 62 0
-4 -15 -62 0
5 15 75 0
-5 -15 -75 0
6 15 88 0
-6 -15 -88 0
7 15 101 0
-7 -15 -101 0
8 15 114 0
-8 -15 -114 0
9 15 127 0
-9 -15 -127 0
1 16 24 0
-1 -16 -24 0
2 16 37 0
-2 -16 -37 0
3 16 50 0
-3 -16 -50 0
4 16 63 0
-4 -16 -63 0
5 16 76 0
-5 -16 -76 0
6 16 89 0
-6 -16 -89 0
7 16 102 0
-7 -16 -102 0
8 16 115 0
-8 -16 -115 0
9 16 128 0
-9 -16 -128 0
1 17 25 0
-1 -17 -25 0
2 17 38 0
-2 -17 -38 0
3 17 51 0
-3 -17 -51 0
4 17 64 0
-4 -17 -64 0
5 17 77 0
-5 -17 -77 0
6 17 90 0
-6 -17 -90 0
7 17 103 0
-7 -17 -103 0
8 17 116 0
-8 -17 -116 0
9 17 129 0
-9 -17 -129 0
1 18 26 0
-1 -18 -26 0
2 18 39 0
-2 -18 -39 0
3 18 52 0
-3 -18 -52 0
4 18 65 0
-4 -18 -65 0
5 18 78 0
-5 -18 -78 0
6 18 91 0
-6 -18 -91 0
7 18 104 0
-7 -18 -104 0
8 18 117 0
-8 -18 -117 0
9 18 130 0
-9 -18 -130 0
1 19 27 0
-1 -19 -27 0
2 19 40 0
-2 -19 -40 0
3 19 53 0
-3 -19 -53 0
4 19 66 0
-4 -19 -66 0
5 19 79 0
-5 -19 -79 0
6 19 92 0
-6 -19 -92 0
7 19 105 0
-7 -19 -105 0
8 19 118 0
-8 -19 -118 0
9 19 131 0
-9 -19 -131 0
1 20 28 0
-1 -20 -28 0
2 20 41 0
-2 -20 -41 0
3 20 54 0
-3 -20 -54 0
4 20 67 0
-4 -20 -67 0
5 20 80 0
-5 -20 -80 0
6 20 93 0
-6 -20 -93 0
7 20 106 0
-7 -20 -106 0
8 20 119 0
-8 -20 -119 0
9 20 132 0
-9 -20 -132 0
1 21 29 0
-1 -21 -29 0
2 21 42 0
-2 -21 -42 0
3 21 55 0
-3 -21 -55 0
4 21 68 0
-4 -21 -68 0
5 21 81 0
-5 -21 -81 0
6 21 94 0
-6 -21 -94 0
7 21 107 0
-7 -21 -107 0
8 21 120 0
-8 -21 -120 0
9 21 133 0
-9 -21 -133 0
1 22 30 0
-1 -22 -30 0
2 22 43 0
-2 -22 -43 0
3 22 56 0
-3 -22 -56 0
4 22 69 0
-4 -22 -69 0
5 22 82 0
-5 -22 -82 0
6 22 95 0
-6 -22 -95 0
7 22 108 0
-7 -22 -108 0
8 22 121 0
-8 -22 -121 0
9 22 134 0
-9 -22 -134 0
1 23 31 0
-1 -23 -31 0
2 23 44 0
-2 -23 -44 0
3 23 57 0
-3 -23 -57 0
4 23 70 0
-4 -23 -70 0
5 23 83 0
-5 -23 -83 0
6 23 96 0
-6 -23 -96 0
7 23 109 0
-7 -23 -109 0
8 23 122 0
-8 -23 -122 0
1 24 32 0
-1 -24 -32 0
2 24 45 0
-2 -24 -45 0
3 24 58 0
-3 -24 -58 0
4 24 71 0
-4 -24 -71 0
5 24 84 0
-5 -24 -84 0
6 24 97 0
-6 -24 -97 0
7 24 110 0
-7 -24 -110 0
8 24 123 0
-8 -24 -123 0
1 25 33 0
-1 -25 -33 0
2 25 46 0
-2 -25 -46 0
3 25 59 0
-3 -25 -59 0
4 25 72 0
-4 -25 -72 0
5 25 85 0
-5 -25 -85 0
6 25 98 0
-6 -25 -98 0
7 25 111 0
-7 -25 -111 0
8 25 124 0
-8 -25 -124 0
1 26 34 0
-1 -26 -34 0
2 26 47 0
-2 -26 -47 0
3 26 60 0
-3 -26 -60 0
4 26 73 0
-4 -26 -73 0
5 26 86 0
-5 -26 -86 0
6 26 99 0
-6 -26 -99 0
7 26 112 0
-7 -26 -112 0
8 26 125 0
-8 -26 -125 0
1 27 35 0
-1 -27 -35 0
2 27 48 0
-2 -27 -48 0
3 27 61 0
-3 -27 -61 0
4 27 74 0
-4 -27 -74 0
5 27 87 0
-5 -27 -87 0
6 27 100 0
-6 -27 -100 0
7 27 113 0
-7 -27 -113 0
8 27 126 0
-8 -27 -126 0
1 28 36 0
-1 -28 -36 0
2 28 49 0
-2 -28 -49 0
3 28 62 0
-3 -28 -62 0
4 28 75 0
-4 -28 -75 0
5 28 88 0
-5 -28 -88 0
6 28 101 0
-6 -28 -101 0
7 28 114 0
-7 -28 -114 0
8 28 127 0
-8 -28 -127 0
1 29 37 0
-1 -29 -37 0
2 29 50 0
-2 -29 -50 0
3 29 63 0
-3 -29 -63 0
4 29 76 0
-4 -29 -76 0
5 29 89 0
-5 -29 -89 0
6 29 102 0
-6 -29 -102 0
7 29 115 0
-7 -29 -115 0
8 29 128 0
-8 -29 -128 0
1 30 38 0
-1 -30 -38 0
2 30 51 0
-2 -30 -51 0
3 30 64 0
-3 -30 -64 0
4 30 77 0
-4 -30 -77 0
5 30 90 0
-5 -30 -90 0
6 30 103 0
-6 -30 -103 0
7 30 116 0
-7 -30 -116 0
8 30 129 0
-8 -30 -129 0
1 31 39 0
-1 -31 -39 0
2 31 52 0
-2 -31 -52 0
3 31 65 0
-3 -31 -65 0
4 31 78 0
-4 -31 -78 0
5 31 91 0
-5 -31 -91 0
6 31 104 0
-6 -31 -104 0
7 31 117 0
-7 -31 -117 0
8 31 130 0
-8 -31 -130 0
1 32 40 0
-1 -32 -40 0
2 32 53 0
-2 -32 -53 0
3 32 66 0
-3 -32 -66 0
4 32 79 0
-4 -32 -79 0
5 32 92 0
-5 -32 -92 0
6 32 105 0
-6 -32 -105 0
7 32 118 0
-7 -32 -118 0
8 32 131 0
-8 -32 -131 0
1 33 41 0
-1 -33 -41 0
2 33 54 0
-2 -33 -54 0
3 33 67 0
-3 -33 -67 0
4 33 80 0
-4 -33 -80 0
5 33 93 0
-5 -33 -93 0
6 33 106 0
-6 -33 -106 0
7 33 119 0
-7 -33 -119 0
8 33 132 0
-8 -33 -132 0
1 34 42 0
-1 -34 -42 0
2 34 55 0
-2 -34 -55 0
3 34 68 0
-3 -34 -68 0
4 34 81 0
-4 -34 -81 0
5 34 94 0
-5 -34 -94 0
6 34 107 0
-6 -34 -107 0
7 34 120 0
-7 -34 -120 0
8 34 133 0
-8 -34 -133 0
1 35 43 0
-1 -35 -43 0
2 35 56 0
-2 -35 -56 0
3 35 69 0
-3 -35 -69 0
4 35 82 0
-4 -35 -82 0
5 35 95 0
-5 -35 -95 0
6 35 108 0
-6 -35 -108 0
7 35 121 0
-7 -35 -121 0
8 35 134 0
-8 -35 -134 0
1 36 44 0
-1 -36 -44 0
2 36 57 0
-2 -36 -57 0
3 36 70 0
-3 -36 -70 0
4 36 83 0
-4 -36 -83 0
5 36 96 0
-5 -36 -96 0
6 36 109 0
-6 -36 -109 0
7 36 122 0
-7 -36 -122 0
1 37 45 0
-1 -37 -45 0
2 37 58 0
-2 -37 -58 0
3 37 71 0
-3 -37 -71 0
4 37 84 0
-4 -37 -84 0
5 37 97 0
-5 -37 -97 0
6 37 110 0
-6 -37 -110 0
7 37 123 0
-7 -37 -123 0
1 38 46 0
-1 -38 -46 0
2 38 59 0
-2 -38 -59 0
3 38 72 0
-3 -38 -72 0
4 38 85 0
-4 -38 -85 0
5 38 98 0
-5 -38 -98 0
6 38 111 0
-6 -38 -111 0
7 38 124 0
-7 -38 -124 0
1 39 47 0
-1 -39 -47 0
2 39 60 0
-2 -39 -60 0
3 39 73 0
-3 -39 -73 0
4 39 86 0
-4 -39 -86 0
5 39 99 0
-5 -39 -99 0
6 39 112 0
-6 -39 -112 0
7 39 125 0
-7 -39 -125 0
1 40 48 0
-1 -40 -48 0
2 40 61 0
-2 -40 -61 0
3 40 74 0
-3 -40 -74 0
4 40 87 0
-4 -40 -87 0
5 40 100 0
-5 -40 -100 0
6 40 113 0
-6 -40 -113 0
7 40 126 0
-7 -40 -126 0
1 41 49 0
-1 -41 -49 0
2 41 62 0
-2 -41 -62 0
3 41 75 0
-3 -41 -75 0
4 41 88 0
-4 -41 -88 0
5 41 101 0
-5 -41 -101 0
6 41 114 0
-6 -41 -114 0
7 41 127 0
-7 -41 -127 0
1 42 50 0
-1 -42 -50 0
2 42 63 0
-2 -42 -63 0
3 42 76 0
-3 -42 -76 0
4 42 89 0
-4 -42 -89 0
5 42 102 0
-5 -42 -102 0
6 42 115 0
-6 -42 -115 0
7 42 128 0
-7 -42 -128 0
1 43 51 0
-1 -43 -51 0
2 43 64 0
-2 -43 -64 0
3 43 77 0
-3 -43 -77 0
4 43 90 0
-4 -43 -90 0
5 43 103 0
-5 -43 -103 0
6 43 116 0
-6 -43 -116 0
7 43 129 0
-7 -43 -129 0
1 44 52 0
-1 -44 -52 0
2 44 65 0
-2 -44 -65 0
3 44 78 0
-3 -44 -78 0
4 44 91 0
-4 -44 -91 0
5 44 104 0
-5 -44 -104 0
6 44 117 0
-6 -44 -117 0
7 44 130 0
-7 -44 -130 0
1 45 53 0
-1 -45 -53 0
2 45 66 0
-2 -45 -66 0
3 45 79 0
-3 -45 -79 0
4 45 92 0
-4 -45 -92 0
5 45 105 0
-5 -45 -105 0
6 45 118 0
-6 -45 -118 0
7 45 131 0
-7 -45 -131 0
1 46 54 0
-1 -46 -54 0
2 46 67 0
-2 -46 -67 0
3 46 80 0
-3 -46 -80 0
4 46 93 0
-4 -46 -93 0
5 46 106 0
-5 -46 -106 0
6 46 119 0
-6 -46 -119 0
7 46 132 0
-7 -46 -132 0
1 47 55 0
-1 -47 -55 0
2 47 68 0
-2 -47 -68 0
3 47 81 0
-3 -47 -81 0
4 47 94 0
-4 -47 -94 0
5 47 107 0
-5 -47 -107 0
6 47 120 0
-6 -47 -120 0
7 47 133 0
-7 -47 -133 0
1 48 56 0
-1 -48 -56 0
2 48 69 0
-2 -48 -69 0
3 48 82 0
-3 -48 -82 0
4 48 95 0
-4 -48 -95 0
5 48 108 0
-5 -48 -108 0
6 48 121 0
-6 -48 -121 0
7 48 134 0
-7 -48 -134 0
1 49 57 0
-1 -49 -57 0
2 49 70 0
-2 -49 -70 0
3 49 83 0
-3 -49 -83 0
4 49 96 0
-4 -49 -96 0
5 49 109 0
-5 -49 -109 0
6 49 122 0
-6 -49 -122 0
1 50 58 0
-1 -50 -58 0
2 50 71 0
-2 -50 -71 0
3 50 84 0
-3 -50 -84 0
4 50 97 0
-4 -50 -97 0
5 50 110 0
-5 -50 -110 0
6 50 123 0
-6 -50 -123 0
1 51 59 0
-1 -51 -59 0
2 51 72 0
-2 -51 -72 0
3 51 85 0
-3 -51 -85 0
4 51 98 0
-4 -51 -98 0
5 51 111 0
-5 -51 -111 0
6 51 124 0
-6 -51 -124 0
1 52 60 0
-1 -52 -60 0
2 52 73 0
-2 -52 -73 0
3 52 86 0
-3 -52 -86 0
4 52 99 0
-4 -52 -99 0
5 52 112 0
-5 -52 -112 0
6 52 125 0
-6 -52 -125 0
1 53 61 0
-1 -53 -61 0
2 53 74 0
-2 -53 -74 0
3 53 87 0
-3 -53 -87 0
4 53 100 0
-4 -53 -100 0
5 53 113 0
-5 -53 -113 0
6 53 126 0
-6 -53 -126 0
1 54 62 0
-1 -54 -62 0
2 54 75 0
-2 -54 -75 0
3 54 88 0
-3 -54 -88 0
4 54 101 0
-4 -54 -101 0
5 54 114 0
-5 -54 -114 0
6 54 127 0
-6 -54 -127 0
1 55 63 0
-1 -55 -63 0
2 55 76 0
-2 -55 -76 0
3 55 89 0
-3 -55 -89 0
4 55 102 0
-4 -55 -102 0
5 55 115 0
-5 -55 -115 0
6 55 128 0
-6 -55 -128 0
1 56 64 0
-1 -56 -64 0
2 56 77 0
-2 -56 -77 0
3 56 90 0
-3 -56 -90 0
4 56 103 0
-4 -56 -103 0
5 56 116 0
-5 -56 -116 0
6 56 129 0
-6 -56 -129 0
1 57 65 0
-1 -57 -65 0
2 57 78 0
-2 -57 -78 0
3 57 91 0
-3 -57 -91 0
4 57 104 0
-4 -57 -104 0
5 57 117 0
-5 -57 -117 0
6 57 130 0
-6 -57 -130 0
1 58 66 0
-1 -58 -66 0
2 58 79 0
-2 -58 -79 0
3 58 92 0
-3 -58 -92 0
4 58 105 0
-4 -58 -105 0
5 58 118 0
-5 -58 -118 0
6 58 131 0
-6 -58 -131 0
1 59 67 0
-1 -59 -67 0
2 59 80 0
-2 -59 -80 0
3 59 93 0
-3 -59 -93 0
4 59 106 0
-4 -59 -106 0
5 59 119 0
-5 -59 -119 0
6 59 132 0
-6 -59 -132 0
1 60 68 0
-1 -60 -68 0
2 60 81 0
-2 -60 -81 0
3 60 94 0
-3 -60 -94 0
4 60 107 0
-4 -60 -107 0
5 60 120 0
-5 -60 -120 0
6 60 133 0
-6 -60 -133 0
1 61 69 0
-1 -61 -69 0
2 61 82 0
-2 -61 -82 0
3 61 95 0
-3 -61 -95 0
4 61 108 0
-4 -61 -108 0
5 61 121 0
-5 -61 -121 0
6 61 134 0
-6 -61 -134 0
1 62 70 0
-1 -62 -70 0
2 62 83 0
-2 -62 -83 0
3 62 96 0
-3 -62 -96 0
4 62 109 0
-4 -62 -109 0
5 62 122 0
-5 -62 -122 0
1 63 71 0
-1 -63 -71 0
2 63 84 0
-2 -63 -84 0
3 63 97 0
-3 -63 -97 0
4 63 110 0
-4 -63 -110 0
5 63 123 0
-5 -63 -123 0
1 64 72 0
-1 -64 -72 0
2 64 85 0
-2 -64 -85 0
3 64 98 0
-3 -64 -98 0
4 64 111 0
-4 -64 -111 0
5 64 124 0
-5 -64 -124 0
1 65 73 0
-1 -65 -73 0
2 65 86 0
-2 -65 -86 0
3 65 99 0
-3 -65 -99 0
4 65 112 0
-4 -65 -112 0
5 65 125 0
-5 -65 -125 0
1 66 74 0
-1 -66 -74 0
2 66 87 0
-2 -66 -87 0
3 66 100 0
-3 -66 -100 0
4 66 113 0
-4 -66 -113 0
5 66 126 0
-5 -66 -126 0
1 67 75 0
-1 -67 -75 0
2 67 88 0
-2 -67 -88 0
3 67 101 0
-3 -67 -101 0
4 67 114 0
-4 -67 -114 0
5 67 127 0
-5 -67 -127 0
1 68 76 0
-1 -68 -76 0
2 68 89 0
-2 -68 -89 0
3 68 102 0
-3 -68 -102 0
4 68 115 0
-4 -68 -115 0
5 68 128 0
-5 -68 -128 0
1 69 77 0
-1 -69 -77 0
2 69 90 0
-2 -69 -90 0
3 69 103 0
-3 -69 -103 0
4 69 116 0
-4 -69 -116 0
5 69 129 0
-5 -69 -129 0
1 70 78 0
-1 -70 -78 0
2 70 91 0
-2 -70 -91 0
3 70 104 0
-3 -70 -104 0
4 70 117 0
-4 -70 -117 0
5 70 130 0
-5 -70 -130 0
1 71 79 0
-1 -71 -79 0
2 71 92 0
-2 -71 -92 0
3 71 105 0
-3 -71 -105 0
4 71 118 0
-4 -71 -118 0
5 71 131 0
-5 -71 -131 0
1 72 80 0
-1 -72 -80 0
2 72 93 0
-2 -72 -93 0
3 72 106 0
-3 -72 -106 0
4 72 119 0
-4 -72 -119 0
5 72 132 0
-5 -72 -132 0
1 73 81 0
-1 -73 -81 0
2 73 94 0
-2 -73 -94 0
3 73 107 0
-3 -73 -107 0
4 73 120 0
-4 -73 -120 0
5 73 133 0
-5 -73 -133 0
1 74 82 0
-1 -74 -82 0
2 74 95 0
-2 -74 -95 0
3 74 108 0
-3 -74 -108 0
4 74 121 0
-4 -74 -121 0
5 74 134 0
-5 -74 -134 0
1 75 83 0
-1 -75 -83 0
2 75 96 0
-2 -75 -96 0
3 75 109 0
-3 -75 -109 0
4 75 122 0
-4 -75 -122 0
1 76 84 0
-1 -76 -84 0
2 76 97 0
-2 -76 -97 0
3 76 110 0
-3 -76 -110 0
4 76 123 0
-4 -76 -123 0
1 77 85 0
-1 -77 -85 0
2 77 98 0
-2 -77 -98 0
3 77 111 0
-3 -77 -111 0
4 77 124 0
-4 -77 -124 0
1 78 86 0
-1 -78 -86 0
2 78 99 0
-2 -78 -99 0
3 78 112 0
-3 -78 -112 0
4 78 125 0
-4 -78 -125 0
1 79 87 0
-1 -79 -87 0
2 79 100 0
-2 -79 -100 0
3 79 113 0
-3 -79 -113 0
4 79 126 0
-4 -79 -126 0
1 80 88 0
-1 -80 -88 0
2 80 101 0
-2 -80 -101 0
3 80 114 0
-3 -80 -114 0
4 80 127 0
-4 -80 -127 0
1 81 89 0
-1 -81 -89 0
2 81 102 0
-2 -81 -102 0
3 81 115 0
-3 -81 -115 0
4 81 128 0
-4 -81 -128 0
1 82 90 0
-1 -82 -90 0
2 82 103 0
-2 -82 -103 0
3 82 116 0
-3 -82 -116 0
4 82 129 0
-4 -82 -129 0
1 83 91 0
-1 -83 -91 0
2 83 104 0
-2 -83 -104 0
3 83 117 0
-3 -83 -117 0
4 83 130 0
-4 -83 -130 0
1 84 92 0
-1 -84 -92 0
2 84 105 0
-2 -84 -105 0
3 84 118 0
-3 -84 -118 0
4 84 131 0
-4 -84 -131 0
1 85 93 0
-1 -85 -93 0
2 85 106 0
-2 -85 -106 0
3 85 119 0
-3 -85 -119 0
4 85 132 0
-4 -85 -132 0
1 86 94 0
-1 -86 -94 0
2 86 107 0
-2 -86 -107 0
3 86 120 0
-3 -86 -120 0
4 86 133 0
-4 -86 -133 0
1 87 95 0
-1 -87 -95 0
2 87 108 0
-2 -87 -108 0
3 87 121 0
-3 -87 -121 0
4 87 134 0
-4 -87 -134 0
1 88 96 0
-1 -88 -96 0
2 88 109 0
-2 -88 -109 0
3 88 122 0
-3 -88 -122 0
1 89 97 0
-1 -89 -97 0
2 89 110 0
-2 -89 -110 0
3 89 123 0
-3 -89 -123 0
1 90 98 0
-1 -90 -98 0
2 90 111 0
-2 -90 -111 0
3 90 124 0
-3 -90 -124 0
1 91 99 0
-1 -91 -99 0
2 91 112 0
-2 -91 -112 0
3 91 125 0
-3 -91 -125 0
1 92 100 0
-1 -92 -100 0
2 92 113 0
-2 -92 -113 0
3 92 126 0
-3 -92 -126 0
1 93 101 0
-1 -93 -101 0
2 93 114 0
-2 -93 -114 0
3 93 127 0
-3 -93 -127 0
1 94 102 0
-1 -94 -102 0
2 94 115 0
-2 -94 -115 0
3 94 128 0
-3 -94 -128 0
1 95 103 0
-1 -95 -103 0
2 95 116 0
-2 -95 -116 0
3 95 129 0
-3 -95 -129 0
1 96 104 0
-1 -96 -104 0
2 96 117 0
-2 -96 -117 0
3 96 130 0
-3 -96 -130 0
1 97 105 0
-1 -97 -105 0
2 97 118 0
-2 -97 -118 0
3 97 131 0
-3 -97 -131 0
1 98 106 0
-1 -98 -106 0
2 98 119 0
-2 -98 -119 0
3 98 132 0
-3 -98 -132 0
1 99 107 0
-1 -99 -107 0
2 99 120 0
-2 -99 -120 0
3 99 133 0
-3 -99 -133 0
1 100 108 0
-1 -100 -108 0
2 100 121 0
-2 -100 -121 0
3 100 134 0
-3 -100 -134 0
1 101 109 0
-1 -101 -109 0
2 101 122 0
-2 -101 -122 0
1 102 110 0
-1 -102 -110 0
2 102 123 0
-2 -102 -123 0
1 103 111 0
-1 -103 -111 0
2 103 124 0
-2 -103 -124 0
1 104 112 0
-1 -104 -112 0
2 104 125 0
-2 -104 -125 0
1 105 113 0
-1 -105 -113 0
2 105 126 0
-2 -105 -126 0
1 106 114 0
-1 -106 -114 0
2 106 127 0
-2 -106 -127 0
1 107 115 0
-1 -107 -115 0
2 107 128 0
-2 -107 -128 0
1 108 116 0
-1 -108 -116 0
2 108 129 0
-2 -108 -129 0
1 109 117 0
-1 -109 -117 0
2 109 130 0
-2 -109 -130 0
1 110 118 0
-1 -110 -118 0
2 110 131 0
-2 -110 -131 0
1 111 119 0
-1 -111 -119 0
2 111 132 0
-2 -111 -132 0
1 112 120 0
-1 -112 -120 0
2 112 133 0
-2 -112 -133 0
1 113 121 0
-1 -113 -121 0
2 113 134 0
-2 -113 -134 0
1 114 122 0
-1 -114 -122 0
1 115 123 0
-1 -115 -123 0
1 116 124 0
-1 -116 -124 0
1 117 125 0
-1 -117 -125 0
1 118 126 0
-1 -118 -126 0
1 119 127 0
-1 -119 -127 0
1 120 128 0
-1 -120 -128 0
1 121 129 0
-1 -121 -129 0
1 122 130 0
-1 -122 -130 0
1 123 131 0
-1 -123 -131 0
1 124 132 0
-1 -124 -132 0
1 125 133 0
-1 -125 -133 0
1 126 134 0
-1 -126 -134 0
