certificates/rado_a13_c5_N134.drat
1 -130 -134 0
-130 -132 -134 0
-10 130 -134 0
-5 -133 0
130 5 -134 0
-133 -134 0
-130 -134 0
d -130 -132 -134 0
d 1 -130 -134 0
9 -134 0
130 -134 0
d -10 130 -134 0
-134 0
10 0
-9 0
1 0
121 0
22 0
-126 0
-18 0
-2 0
-129 0
-113 0
-30 0
-8 0
-14 0
0
